40 40
20
3 3   3 29
3 4   0 9 
3 5   0 13
3 6   3 16
3 7   3 22
3 8   3 32
3 9   0 0 
3 10  0 30
3 12  0 18
3 16  3 0 
3 40  6 0 
4 4   36 14
4 14  36 0 
4 22  36 18
5 3   9 20
5 4   9 36
5 8   9 0 
5 12  9 8 
5 13  9 23
22 40  14 0 
